p cnf 30 45
-6 29 0 
-13 1 0 
-28 3 0 
-4 23 0 
-10 11 0 
-3 12 0 
-5 17 0 
-1 14 0 
-19 1 0 
-4 18 0 
-10 16 0 
-15 8 10 0 
-14 1 0 
-5 26 0 
-12 3 0 
-11 10 0 
-3 23 0 
-21 7 0 
-17 5 0 
-8 15 0 
-7 21 0 
-30 5 10 0 
-24 6 0 
-5 27 0 
-6 24 0 
-10 30 0 
-8 29 0 
-29 6 8 0 
-18 4 0 
-1 19 0 
-23 3 4 0 
-3 28 0 
-2 20 0 
-10 15 0 
-16 10 0 
-5 30 0 
-20 2 0 
-9 22 0 
-22 9 0 
-27 4 5 0 
-26 5 0 
-4 27 0 
-25 4 0 
-1 13 0 
-4 25 0 
